data/solutions/recovery/degenerate/intermediate/binding/degenerate_intermediate_instance21/23.sol
Elapsed time: 0.03
Upper bound: 31008626.0
Planning weighted value: 1.01707721401e+11
C[0]=31008626.0
C[1]=30646438.0
C[2]=29356841.0
C[3]=28700650.0
C[4]=28374722.0
C[5]=28218361.0
C[6]=27616137.0
C[7]=27206490.0
C[8]=25392976.0
C[9]=24477305.0
C[10]=0.0
C[11]=0.0
y[0]=9
y[1]=0
y[2]=7
y[3]=8
y[4]=4
y[5]=0
y[6]=3
y[7]=1
y[8]=9
y[9]=6
y[10]=0
y[11]=8
y[12]=6
y[13]=3
y[14]=3
y[15]=5
y[16]=3
y[17]=9
y[18]=7
y[19]=8
y[20]=2
y[21]=5
y[22]=0
y[23]=9
y[24]=5
y[25]=5
y[26]=8
y[27]=3
y[28]=8
y[29]=2
y[30]=3
y[31]=4
y[32]=0
y[33]=4
y[34]=7
y[35]=6
y[36]=6
y[37]=2
y[38]=0
y[39]=6
y[40]=3
y[41]=3
y[42]=8
y[43]=4
y[44]=2
y[45]=2
y[46]=7
y[47]=9
y[48]=5
y[49]=4
y[50]=1
y[51]=9
y[52]=5
y[53]=9
y[54]=1
y[55]=2
y[56]=6
y[57]=1
y[58]=3
y[59]=7
y[60]=6
y[61]=1
y[62]=7
y[63]=4
y[64]=3
